c This is a CNF SAT formula in the DIMACS CNF format,
c produced with the bc2cnf translator by Tommi Junttila;
c see http://users.ics.aalto.fi/tjunttil/circuits/index.html
c SR7 <-> 2
c A7 <-> 3
c C6 <-> 4
c A6 <-> 8
c C5 <-> 9
c A5 <-> 13
c C4 <-> 14
c A4 <-> 18
c C3 <-> 19
c A3 <-> 23
c C2 <-> 24
c A2 <-> 28
c C1 <-> 29
c A1 <-> 33
c C0 <-> 34
c A0 <-> 38
c FB7 <-> 39
c B7 <-> 40
c FB6 <-> 41
c B6 <-> 42
c FB5 <-> 43
c B5 <-> 44
c FB4 <-> 45
c B4 <-> 46
c FB3 <-> 47
c B3 <-> 48
c FB2 <-> 49
c B2 <-> 50
c FB1 <-> 51
c B1 <-> 52
c FB0 <-> 53
c B0 <-> 54
c ALUFN0 <-> 55
p cnf 55 132
1 4 -3 0
1 -4 3 0
-1 4 3 0
-1 -4 -3 0
2 39 -1 0
2 -39 1 0
-2 39 1 0
-2 -39 -1 0
2 0
4 -5 0
4 -6 0
4 -7 0
-4 7 6 5 0
-5 9 0
-5 41 0
5 -41 -9 0
-6 8 0
-6 9 0
6 -9 -8 0
-7 8 0
-7 41 0
7 -41 -8 0
9 -10 0
9 -11 0
9 -12 0
-9 12 11 10 0
-10 14 0
-10 43 0
10 -43 -14 0
-11 13 0
-11 14 0
11 -14 -13 0
-12 13 0
-12 43 0
12 -43 -13 0
14 -15 0
14 -16 0
14 -17 0
-14 17 16 15 0
-15 19 0
-15 45 0
15 -45 -19 0
-16 18 0
-16 19 0
16 -19 -18 0
-17 18 0
-17 45 0
17 -45 -18 0
19 -20 0
19 -21 0
19 -22 0
-19 22 21 20 0
-20 24 0
-20 47 0
20 -47 -24 0
-21 23 0
-21 24 0
21 -24 -23 0
-22 23 0
-22 47 0
22 -47 -23 0
24 -25 0
24 -26 0
24 -27 0
-24 27 26 25 0
-25 29 0
-25 49 0
25 -49 -29 0
-26 28 0
-26 29 0
26 -29 -28 0
-27 28 0
-27 49 0
27 -49 -28 0
29 -30 0
29 -31 0
29 -32 0
-29 32 31 30 0
-30 34 0
-30 51 0
30 -51 -34 0
-31 33 0
-31 34 0
31 -34 -33 0
-32 33 0
-32 51 0
32 -51 -33 0
34 -35 0
34 -36 0
34 -37 0
-34 37 36 35 0
-35 53 0
-35 55 0
35 -55 -53 0
-36 38 0
-36 55 0
36 -55 -38 0
-37 38 0
-37 53 0
37 -53 -38 0
39 55 -40 0
39 -55 40 0
-39 55 40 0
-39 -55 -40 0
41 55 -42 0
41 -55 42 0
-41 55 42 0
-41 -55 -42 0
43 55 -44 0
43 -55 44 0
-43 55 44 0
-43 -55 -44 0
45 55 -46 0
45 -55 46 0
-45 55 46 0
-45 -55 -46 0
47 55 -48 0
47 -55 48 0
-47 55 48 0
-47 -55 -48 0
49 55 -50 0
49 -55 50 0
-49 55 50 0
-49 -55 -50 0
51 55 -52 0
51 -55 52 0
-51 55 52 0
-51 -55 -52 0
53 55 -54 0
53 -55 54 0
-53 55 54 0
-53 -55 -54 0
